170 40 13
187 75 17
151 88 40
139 138 103
179 127 123
142 16 189
97 69 181
108 91 155
99 120 136
114 166 132
74 168 182
41 154 149
73 172 125
5 93 66
18 113 30
78 87 48
87 101 55
85 92 107
86 85 139
56 95 164
54 53 127
44 16 170
80 0 133
50 16 132
43 34 106
47 41 63
17 39 30
66 76 69
110 56 42
111 148 27
151 191 162
183 135 172
169 124 149
197 94 100
195 118 32
180 129 12
170 150 32
153 158 10
152 177 2
123 183 59
82 154 42
39 153 17
19 156 5
44 192 36
62 178 91
4 111 116
46 123 72
96 125 92
135 87 121
135 26 116
170 40 13